p wcnf 137 68 69 
1 11 -60 0 
1 -79 -54 0 
1 -99 115 0 
1 52 120 0 
1 124 -131 0 
1 53 18 0 
1 112 -77 0 
1 -33 13 0 
1 34 136 0 
1 -119 26 0 
1 9 -82 0 
1 -22 -134 0 
1 84 -38 0 
1 -109 -134 0 
1 -84 -35 0 
1 123 -45 0 
1 -111 110 0 
1 11 119 0 
1 -6 131 0 
1 -88 -25 0 
1 -44 105 0 
1 -61 82 0 
1 132 -127 0 
1 -111 68 0 
1 6 -22 0 
1 41 7 0 
1 -58 21 0 
1 111 17 0 
1 81 -110 0 
1 50 -72 0 
1 90 -84 0 
1 -18 -105 0 
1 93 -59 0 
1 54 -42 0 
1 106 94 0 
1 124 -137 0 
1 36 50 0 
1 -71 81 0 
1 -125 -68 0 
1 -15 92 0 
1 -118 -129 0 
1 74 78 0 
1 122 51 0 
1 69 -94 0 
1 128 28 0 
1 53 -48 0 
1 -63 62 0 
1 22 26 0 
1 104 -26 0 
1 -106 20 0 
1 110 -91 0 
1 -100 61 0 
1 9 4 0 
1 110 31 0 
1 28 97 0 
1 79 -102 0 
1 26 -60 0 
1 137 -91 0 
1 122 26 0 
1 -17 -38 0 
1 -40 -25 0 
1 -130 -33 0 
1 -7 105 0 
1 12 -18 0 
1 -60 -2 0 
1 -111 11 0 
1 -31 46 0 
1 110 -9 0 
